results_rootrelaxation/bin012_080_040.srr.sol
solution status: optimal solution found
objective value:                     17.6438356164384
_var712_                            0.493150684931504 	(obj:0)
_var720_                            0.493150684931506 	(obj:2)
_var735_                            0.178082191780824 	(obj:3)
_var738_                           0.0547945205479448 	(obj:1)
_var747_                             0.47945205479452 	(obj:0)
_var755_                            0.260273972602741 	(obj:1)
_var757_                            0.452054794520546 	(obj:2)
_var772_                           0.0958904109589036 	(obj:1)
_var778_                            0.506849315068495 	(obj:0)
_var795_                           0.0273972602739737 	(obj:2)
_var799_                            0.575342465753423 	(obj:1)
_var805_                            0.246575342465751 	(obj:1)
_var813_                            0.123287671232876 	(obj:1)
_var816_                             0.15068493150685 	(obj:1)
_var817_                            0.383561643835616 	(obj:2)
_var830_                            0.369863013698631 	(obj:2)
_var832_                            0.164383561643836 	(obj:1)
_var836_                           0.0136986301369888 	(obj:2)
_var842_                           0.0958904109589028 	(obj:2)
_var857_                              0.3013698630137 	(obj:3)
_var867_                           0.0410958904109584 	(obj:2)
_var868_                            0.260273972602738 	(obj:2)
_var875_                           0.0547945205479446 	(obj:3)
_var876_                            0.232876712328767 	(obj:0)
_var877_                            0.191780821917807 	(obj:2)
_var878_                              0.3013698630137 	(obj:2)
_var879_                            0.219178082191782 	(obj:1)
_var883_                            0.136986301369863 	(obj:2)
_var886_                            0.123287671232878 	(obj:2)
_var887_                           0.0273972602739743 	(obj:0)
_var888_                            0.205479452054794 	(obj:3)
_var890_                            0.287671232876712 	(obj:1)
_var892_                            0.315068493150687 	(obj:2)
_var894_                           0.0547945205479472 	(obj:2)
_var895_                            0.109589041095892 	(obj:3)
_var899_                            0.191780821917808 	(obj:3)
_var900_                            0.136986301369864 	(obj:2)
_var901_                            0.109589041095887 	(obj:3)
_var904_                            0.136986301369863 	(obj:1)
_var905_                            0.136986301369862 	(obj:2)
_var906_                             0.15068493150685 	(obj:1)
_var911_                            0.356164383561642 	(obj:2)
_var914_                            0.205479452054794 	(obj:2)
_var917_                           0.0547945205479453 	(obj:2)
_var919_                            0.219178082191782 	(obj:3)
_var920_                           0.0821917808219174 	(obj:2)
_var923_                            0.136986301369864 	(obj:2)
_var924_                            0.246575342465752 	(obj:2)
_var927_                           0.0273972602739726 	(obj:2)
_var928_                           0.0136986301369859 	(obj:2)
_var929_                            0.246575342465751 	(obj:2)
_var931_                           0.0410958904109597 	(obj:2)
_var932_                           0.0958904109589021 	(obj:3)
_var933_                            0.164383561643836 	(obj:2)
_var936_                           0.0136986301369853 	(obj:2)
_var937_                           0.0821917808219157 	(obj:2)
_var939_                           0.0273972602739756 	(obj:3)
_var940_                           0.0958904109589028 	(obj:3)
